150 9043284
5 118 31 102 56 145 142 129 14 124 148 17 43 60 112 106 41 58 54 85 93 125 80 52 9 149 75 140 117 10 136 143 51 113 16 103 65 128 66 107 108 127 63 27 32 20 71 132 69 38 6 3 39 46 28 146 94 83 44 45 8 1 78 13 19 59 81 62 87 110 141 98 67 42 86 23 126 76 138 135 88 48 55 11 123 150 114 91 111 12 89 147 95 68 105 99 122 121 2 77 131 61 82 37 34 74 130 57 101 7 49 90 40 79 92 109 104 21 116 133 53 36 35 70 64 100 97 18 29 4 115 50 30 15 119 137 139 96 134 120 33 84 73 26 24 22 72 47 25 144 
